CapLotSizing_PM/src/Instancias/NCHSHT/25i6p2m/NBA03.OUT
 CG ITER, OVMR, OVMRUB =           1   63871.8007812   63871.7929688
 CG ITER, OVMR, OVMRUB =           2   62336.2109375   62336.2070312
 CG ITER, OVMR, OVMRUB =           3   62333.9687500   62336.2070312
 CG ITER, OVMR, OVMRUB =           4   55963.2695312   62336.2070312
 CG ITER, OVMR, OVMRUB =           5   54301.8125000   62336.2070312
 CG ITER, OVMR, OVMRUB =           6   54055.6835938   62336.2070312
 CG ITER, OVMR, OVMRUB =           7   53860.5859375   62336.2070312
 CG ITER, OVMR, OVMRUB =           8   53728.6757812   62336.2070312
 CG ITER, OVMR, OVMRUB =           9   53502.9765625   62336.2070312
 CG ITER, OVMR, OVMRUB =          10   53325.3320312   62336.2070312
 CG ITER, OVMR, OVMRUB =          11   53227.0468750   62336.2070312
 CG ITER, OVMR, OVMRUB =          12   53170.8398438   62336.2070312
 CG ITER, OVMR, OVMRUB =          13   53087.8476562   62336.2070312
 CG ITER, OVMR, OVMRUB =          14   53003.3593750   62336.2070312
 CG ITER, OVMR, OVMRUB =          15   52954.0546875   62336.2070312
 CG ITER, OVMR, OVMRUB =          16   52878.2773438   62336.2070312
 CG ITER, OVMR, OVMRUB =          17   52776.8007812   62336.2070312
 CG ITER, OVMR, OVMRUB =          18   52716.8281250   60282.0898438
 CG ITER, OVMR, OVMRUB =          19   52606.0820312   60282.0898438
 CG ITER, OVMR, OVMRUB =          20   52557.5664062   60282.0898438
 CG ITER, OVMR, OVMRUB =          21   52508.5000000   60282.0898438
 CG ITER, OVMR, OVMRUB =          22   52470.8789062   60282.0898438
 CG ITER, OVMR, OVMRUB =          23   52433.4570312   60282.0898438
 CG ITER, OVMR, OVMRUB =          24   52376.1171875   60282.0898438
 CG ITER, OVMR, OVMRUB =          25   52327.7304688   60282.0898438
 CG ITER, OVMR, OVMRUB =          26   52275.3632812   60071.4882812
 CG ITER, OVMR, OVMRUB =          27   52230.9101562   60071.4882812
 CG ITER, OVMR, OVMRUB =          28   52181.3398438   60071.4882812
 CG ITER, OVMR, OVMRUB =          29   52169.5937500   60071.4882812
 CG ITER, OVMR, OVMRUB =          30   52152.6132812   60071.4882812
 CG ITER, OVMR, OVMRUB =          31   52124.0312500   60071.4882812
 CG ITER, OVMR, OVMRUB =          32   52083.4375000   58494.0976562
 CG ITER, OVMR, OVMRUB =          33   52082.7539062   58494.0976562
 CG ITER, OVMR, OVMRUB =          34   52036.1015625   58494.0976562
 CG ITER, OVMR, OVMRUB =          35   52013.4218750   58494.0976562
 CG ITER, OVMR, OVMRUB =          36   51995.4609375   58494.0976562
 CG ITER, OVMR, OVMRUB =          37   51998.7812500   58494.0976562
 CG ITER, OVMR, OVMRUB =          38   51985.7226562   58494.0976562
 CG ITER, OVMR, OVMRUB =          39   51978.5742188   58494.0976562
 CG ITER, OVMR, OVMRUB =          40   51965.4921875   58494.0976562
 CG ITER, OVMR, OVMRUB =          41   51954.7773438   58494.0976562
 CG ITER, OVMR, OVMRUB =          42   51928.1093750   58494.0976562
 CG ITER, OVMR, OVMRUB =          43   51920.4765625   58494.0976562
 CG ITER, OVMR, OVMRUB =          44   51915.2929688   58446.0898438
 CG ITER, OVMR, OVMRUB =          45   51905.2109375   58446.0898438
 CG ITER, OVMR, OVMRUB =          46   51905.0703125   58022.4960938
 CG ITER, OVMR, OVMRUB =          47   51892.1054688   58022.4960938
 CG ITER, OVMR, OVMRUB =          48   51883.9804688   58022.4960938
 CG ITER, OVMR, OVMRUB =          49   51879.2500000   57390.2851562
 CG ITER, OVMR, OVMRUB =          50   51863.0664062   55963.8984375
 CG ITER, OVMR, OVMRUB =          51   51861.9570312   55963.8984375
 CG ITER, OVMR, OVMRUB =          52   51861.6328125   55963.8984375
 CG ITER, OVMR, OVMRUB =          53   51858.1171875   55963.8984375
 CG ITER, OVMR, OVMRUB =          54   51858.0625000   55963.8984375
 CG ITER, OVMR, OVMRUB =          55   51858.3437500   55963.8984375
 CG ITER, OVMR, OVMRUB =          56   51847.3671875   55963.8984375
 CG ITER, OVMR, OVMRUB =          57   51844.7656250   55963.8984375
 CG ITER, OVMR, OVMRUB =          58   51846.3671875   53866.7617188
 CG ITER, OVMR, OVMRUB =          59   51842.8359375   53866.7617188
 CG ITER, OVMR, OVMRUB =          60   51841.0390625   53866.7617188
 CG ITER, OVMR, OVMRUB =          61   51839.7539062   53866.7617188
 CG ITER, OVMR, OVMRUB =          62   51838.7304688   53866.7617188
 CG ITER, OVMR, OVMRUB =          63   51838.1835938   53866.7617188
 CG ITER, OVMR, OVMRUB =          64   51835.7929688   53866.7617188
 CG ITER, OVMR, OVMRUB =          65   51837.8046875   53866.7617188
 CG ITER, OVMR, OVMRUB =          66   51837.7890625   53866.7617188
 CG ITER, OVMR, OVMRUB =          67   51837.8085938   53866.7617188
 CG ITER, OVMR, OVMRUB =          68   51837.8046875   53866.7617188
 CG ITER, OVMR, OVMRUB =          69   51837.7617188   53866.7617188
 CG ITER, OVMR, OVMRUB =          70   51837.8046875   53866.7617188
 CG ITER, OVMR, OVMRUB =          71   51837.7890625   53866.7617188
 CG ITER, OVMR, OVMRUB =          72   51837.7695312   53866.7617188
 CG ITER, OVMR, OVMRUB =          73   51837.8007812   53866.7617188
 CG ITER, OVMR, OVMRUB =          74   51837.8007812   53866.7617188
OVLB =   51837.8007812 OVLUB =   53866.7617188 TIME =      16.8899994
